p cnf 65 219
c p weight 26 -1 0
c p weight -26 1 0
c p weight 28 6.12323399573676603586882014729198302312846062338790031898128063403419218957424163818359375E-17 0
c p weight -28 1 0
c p weight 29 1 0
c p weight -29 1 0
c p weight 30 -1 0
c p weight -30 1 0
c p weight 32 -1 0
c p weight -32 1 0
c p weight 35 -1 0
c p weight -35 1 0
c p weight 38 -1 0
c p weight -38 1 0
c p weight 41 -1 0
c p weight -41 1 0
c p weight 44 -1 0
c p weight -44 1 0
c p weight 47 -1 0
c p weight -47 1 0
c p weight 50 -1 0
c p weight -50 1 0
c p weight 53 -1 0
c p weight -53 1 0
c p weight 56 -1 0
c p weight -56 1 0
c p weight 59 -1 0
c p weight -59 1 0
c p weight 62 -1 0
c p weight -62 1 0
c p weight 65 -1 0
c p weight -65 1 0
-23 0
-21 0
-19 0
-17 0
-15 0
-13 0
-11 0
-9 0
-7 0
-5 0
-3 0
-1 0
25 23 -24 0
25 -23 24 0
-25 23 24 0
-25 -23 -24 0
-26 23 0
-26 24 0
26 -23 -24 0
27 -23 25 0
-27 23 25 0
-28 25 0
27 -28 -23 0
-27 -28 23 0
27 28 23 -25 0
-27 28 -23 -25 0
-29 25 0
27 -29 23 0
-27 -29 -23 0
27 29 -23 -25 0
-27 29 23 -25 0
-30 27 0
-30 25 0
-30 -23 0
30 -27 23 -25 0
31 27 -25 0
31 -27 25 0
-31 27 25 0
-31 -27 -25 0
-32 27 0
-32 25 0
32 -27 -25 0
33 27 -21 0
33 -27 21 0
-33 27 21 0
-33 -27 -21 0
34 31 -22 0
34 -31 22 0
-34 31 22 0
-34 -31 -22 0
-35 27 0
-35 22 0
-35 21 -31 0
-35 -21 31 0
35 -27 21 31 -22 0
35 -27 -21 -31 -22 0
36 33 -19 0
36 -33 19 0
-36 33 19 0
-36 -33 -19 0
37 22 -20 0
37 -22 20 0
-37 22 20 0
-37 -22 -20 0
-38 33 0
-38 20 0
-38 19 -22 0
-38 -19 22 0
38 -33 19 22 -20 0
38 -33 -19 -22 -20 0
39 36 -17 0
39 -36 17 0
-39 36 17 0
-39 -36 -17 0
40 20 -18 0
40 -20 18 0
-40 20 18 0
-40 -20 -18 0
-41 36 0
-41 18 0
-41 17 -20 0
-41 -17 20 0
41 -36 17 20 -18 0
41 -36 -17 -20 -18 0
42 39 -15 0
42 -39 15 0
-42 39 15 0
-42 -39 -15 0
43 18 -16 0
43 -18 16 0
-43 18 16 0
-43 -18 -16 0
-44 39 0
-44 16 0
-44 15 -18 0
-44 -15 18 0
44 -39 15 18 -16 0
44 -39 -15 -18 -16 0
45 42 -13 0
45 -42 13 0
-45 42 13 0
-45 -42 -13 0
46 16 -14 0
46 -16 14 0
-46 16 14 0
-46 -16 -14 0
-47 42 0
-47 14 0
-47 13 -16 0
-47 -13 16 0
47 -42 13 16 -14 0
47 -42 -13 -16 -14 0
48 45 -11 0
48 -45 11 0
-48 45 11 0
-48 -45 -11 0
49 14 -12 0
49 -14 12 0
-49 14 12 0
-49 -14 -12 0
-50 45 0
-50 12 0
-50 11 -14 0
-50 -11 14 0
50 -45 11 14 -12 0
50 -45 -11 -14 -12 0
51 48 -9 0
51 -48 9 0
-51 48 9 0
-51 -48 -9 0
52 12 -10 0
52 -12 10 0
-52 12 10 0
-52 -12 -10 0
-53 48 0
-53 10 0
-53 9 -12 0
-53 -9 12 0
53 -48 9 12 -10 0
53 -48 -9 -12 -10 0
54 51 -7 0
54 -51 7 0
-54 51 7 0
-54 -51 -7 0
55 10 -8 0
55 -10 8 0
-55 10 8 0
-55 -10 -8 0
-56 51 0
-56 8 0
-56 7 -10 0
-56 -7 10 0
56 -51 7 10 -8 0
56 -51 -7 -10 -8 0
57 54 -5 0
57 -54 5 0
-57 54 5 0
-57 -54 -5 0
58 8 -6 0
58 -8 6 0
-58 8 6 0
-58 -8 -6 0
-59 54 0
-59 6 0
-59 5 -8 0
-59 -5 8 0
59 -54 5 8 -6 0
59 -54 -5 -8 -6 0
60 57 -3 0
60 -57 3 0
-60 57 3 0
-60 -57 -3 0
61 6 -4 0
61 -6 4 0
-61 6 4 0
-61 -6 -4 0
-62 57 0
-62 4 0
-62 3 -6 0
-62 -3 6 0
62 -57 3 6 -4 0
62 -57 -3 -6 -4 0
63 60 -1 0
63 -60 1 0
-63 60 1 0
-63 -60 -1 0
64 4 -2 0
64 -4 2 0
-64 4 2 0
-64 -4 -2 0
-65 60 0
-65 2 0
-65 1 -4 0
-65 -1 4 0
65 -60 1 4 -2 0
65 -60 -1 -4 -2 0
-63 0
-60 0
-64 0
-57 0
-61 0
-54 0
-58 0
-51 0
-55 0
-48 0
-52 0
-45 0
-49 0
-42 0
-46 0
-39 0
-43 0
-36 0
-40 0
-33 0
-37 0
-27 0
-34 0
